NAME: random-40-28026
TYPE: TSP
COMMENT: size=40 seed=28026
DIMENSION: 82
EDGE_WEIGHT_TYPE: EUC_2D
NODE_COORD_SECTION
+0 982 632
-0 982 632
+1 823 80
-1 398 653
+2 59 269
-2 484 911
+3 456 796
-3 456 363
+4 79 849
-4 825 81
+5 978 585
-5 52 910
+6 602 9
-6 255 306
+7 490 513
-7 258 909
+8 627 432
-8 97 705
+9 144 121
-9 276 360
+10 961 680
-10 527 625
+11 37 431
-11 734 648
+12 670 472
-12 819 942
+13 447 56
-13 372 838
+14 379 517
-14 573 519
+15 381 383
-15 831 797
+16 629 110
-16 76 934
+17 314 556
-17 44 551
+18 555 668
-18 128 812
+19 601 195
-19 776 899
+20 590 533
-20 86 808
+21 991 49
-21 179 994
+22 256 507
-22 743 350
+23 591 837
-23 350 993
+24 60 914
-24 479 17
+25 500 211
-25 943 469
+26 286 721
-26 866 200
+27 878 914
-27 56 769
+28 696 489
-28 246 195
+29 73 960
-29 758 927
+30 910 817
-30 96 538
+31 79 397
-31 543 999
+32 513 359
-32 366 212
+33 321 687
-33 578 44
+34 835 814
-34 414 820
+35 254 534
-35 46 138
+36 990 508
-36 462 997
+37 8 79
-37 684 603
+38 266 388
-38 95 953
+39 17 716
-39 143 894
+40 136 412
-40 368 708
PRECEDENCE_SECTION
+0 -0
+1 -1
+2 -2
+3 -3
+4 -4
+5 -5
+6 -6
+7 -7
+8 -8
+9 -9
+10 -10
+11 -11
+12 -12
+13 -13
+14 -14
+15 -15
+16 -16
+17 -17
+18 -18
+19 -19
+20 -20
+21 -21
+22 -22
+23 -23
+24 -24
+25 -25
+26 -26
+27 -27
+28 -28
+29 -29
+30 -30
+31 -31
+32 -32
+33 -33
+34 -34
+35 -35
+36 -36
+37 -37
+38 -38
+39 -39
+40 -40
EOF
